/*********************************************
 * OPL 22.1.2.0 Data
 * Author: adrien.dacostaveiga
 * Creation Date: Apr 1, 2026 at 3:36:00 PM
 *********************************************/
 
// =====================================================
// JEU DE VALIDATION CROISÉE (AIRLAND2)
// =====================================================


// ======================
// DIMENSIONS
// ======================

n = 15;
m = 1;


// ======================
// DATES D’ATTERRISSAGE CIBLES (COMMUNES P1 / P2 / P3)
// ======================
// T = dates cibles (cohérentes avec le jeu de données Airland1 utilisé précédemment)

T = [
  155, 250, 93, 98, 111,
  120, 121, 120, 128, 151,
  341, 313, 181, 171, 342
];


// ======================
// POIDS DE PÉNALITÉ
// ======================
// identiques pour tous les modèles

cMinus = [
  10,10,30,30,30,
  30,30,30,30,30,
  10,10,30,30,10
];

cPlus = [
  10,10,30,30,30,
  30,30,30,30,30,
  10,10,30,30,10
];


// ======================
// DATES CIBLES (DEADLINES)
// ======================

A = [155,250,93,98,111,120,121,120,128,151,341,313,181,171,342];


// ======================
// TEMPS ADDITIONNELS (t[i][r])
// ======================
// cohérent avec le cas simplifié à une piste

t = [
 [10],[10],[10],[10],[10],
 [10],[10],[10],[10],[10],
 [10],[10],[10],[10],[10]
];


// ======================
// SOLUTIONS (TEMPS D’ATTERRISSAGE)
// ======================
// IMPORTANT : valeurs issues des résultats des modèles P1 / P2 / P3

xP1 = [60, 190, 45, 75, 83, 91, 107, 99, 115, 134, 266, 251, 160, 152, 276];

xP2 = [54, 115, 9, 14, 25, 32, 34, 34, 40, 59, 191, 176, 85, 77, 201];

xP3 = [64, 118, 9, 17, 25, 33, 41, 49, 79, 87, 191, 188, 103, 95, 201];


// ======================
// AFFECTATION AUX PISTES
// ======================

runwayP1 = [1,1,1,1,1,1,1,1,1,1,1,1,1,1,1];
runwayP2 = [1,1,1,1,1,1,1,1,1,1,1,1,1,1,1];
runwayP3 = [1,1,1,1,1,1,1,1,1,1,1,1,1,1,1];